\ENCODING=ISO-8859-1
\Problem name: ilog.cplex

Maximize
 obj: 722 x(0)#0 + 495 x(1)#1 + 542 x(2)#2 + 575 x(3)#3 + 912 x(4)#4
      + 671 x(5)#5 + 894 x(6)#6 + 904 x(7)#7 + 845 x(8)#8 + 469 x(9)#9
      + 661 x(10)#10 + 672 x(11)#11 + 709 x(12)#12 + 862 x(13)#13
      + 777 x(14)#14 + 649 x(15)#15 + 526 x(16)#16 + 536 x(17)#17
      + 767 x(18)#18 + 829 x(19)#19 + 379 x(20)#20 + 555 x(21)#21
      + 594 x(22)#22 + 860 x(23)#23 + 752 x(24)#24 + 680 x(25)#25
      + 909 x(26)#26 + 436 x(27)#27 + 924 x(28)#28 + 785 x(29)#29
      + 424 x(30)#30 + 850 x(31)#31 + 1030 x(32)#32 + 615 x(33)#33
      + 672 x(34)#34 + 892 x(35)#35 + 525 x(36)#36 + 793 x(37)#37
      + 925 x(38)#38 + 814 x(39)#39 + 522 x(40)#40 + 755 x(41)#41
      + 845 x(42)#42 + 1010 x(43)#43 + 554 x(44)#44 + 622 x(45)#45
      + 619 x(46)#46 + 1118 x(47)#47 + 803 x(48)#48 + 704 x(49)#49
      + 462 x(50)#50 + 495 x(51)#51 + 889 x(52)#52 + 633 x(53)#53
      + 663 x(54)#54 + 953 x(55)#55 + 562 x(56)#56 + 806 x(57)#57
      + 727 x(58)#58 + 604 x(59)#59 + 705 x(60)#60 + 831 x(61)#61
      + 850 x(62)#62 + 973 x(63)#63 + 632 x(64)#64 + 638 x(65)#65
      + 705 x(66)#66 + 692 x(67)#67 + 912 x(68)#68 + 533 x(69)#69
      + 510 x(70)#70 + 829 x(71)#71 + 939 x(72)#72 + 570 x(73)#73
      + 584 x(74)#74 + 621 x(75)#75 + 790 x(76)#76 + 884 x(77)#77
      + 995 x(78)#78 + 857 x(79)#79 + 606 x(80)#80 + 1027 x(81)#81
      + 499 x(82)#82 + 763 x(83)#83 + 771 x(84)#84 + 561 x(85)#85
      + 557 x(86)#86 + 627 x(87)#87 + 821 x(88)#88 + 603 x(89)#89
      + 604 x(90)#90 + 821 x(91)#91 + 925 x(92)#92 + 868 x(93)#93
      + 852 x(94)#94 + 721 x(95)#95 + 855 x(96)#96 + 567 x(97)#97
      + 628 x(98)#98 + 681 x(99)#99
Subject To
 c1:  945 x(0)#0 + 309 x(1)#1 + 192 x(2)#2 + 634 x(3)#3 + 450 x(4)#4
      + 471 x(5)#5 + 257 x(6)#6 + 725 x(7)#7 + 230 x(8)#8 + 866 x(9)#9
      + 965 x(10)#10 + 554 x(11)#11 + 264 x(12)#12 + 330 x(13)#13
      + 458 x(14)#14 + 617 x(15)#15 + 250 x(16)#16 + 524 x(17)#17
      + 171 x(18)#18 + 356 x(19)#19 + 19 x(20)#20 + 781 x(21)#21 + 677 x(22)#22
      + 134 x(23)#23 + 164 x(24)#24 + 394 x(25)#25 + 31 x(26)#26 + 951 x(27)#27
      + 497 x(28)#28 + 460 x(29)#29 + 239 x(30)#30 + 883 x(31)#31
      + 719 x(32)#32 + 449 x(33)#33 + 788 x(34)#34 + 438 x(35)#35 + 73 x(36)#36
      + 948 x(37)#37 + 967 x(38)#38 + 367 x(39)#39 + 803 x(40)#40
      + 167 x(41)#41 + 9 x(42)#42 + 111 x(43)#43 + 659 x(44)#44 + 198 x(45)#45
      + 331 x(46)#46 + 336 x(47)#47 + 67 x(48)#48 + 899 x(49)#49 + 567 x(50)#50
      + 301 x(51)#51 + 79 x(52)#52 + 256 x(53)#53 + 642 x(54)#54 + 958 x(55)#55
      + 374 x(56)#56 + 705 x(57)#57 + 830 x(58)#58 + 816 x(59)#59
      + 427 x(60)#60 + 421 x(61)#61 + 705 x(62)#62 + 670 x(63)#63 + 72 x(64)#64
      + 609 x(65)#65 + 375 x(66)#66 + 730 x(67)#67 + 719 x(68)#68
      + 771 x(69)#69 + 592 x(70)#70 + 161 x(71)#71 + 553 x(72)#72
      + 702 x(73)#73 + 217 x(74)#74 + 706 x(75)#75 + 754 x(76)#76
      + 434 x(77)#77 + 707 x(78)#78 + 333 x(79)#79 + 27 x(80)#80 + 673 x(81)#81
      + 942 x(82)#82 + 611 x(83)#83 + 645 x(84)#84 + 930 x(85)#85 + 68 x(86)#86
      + 857 x(87)#87 + 893 x(88)#88 + 93 x(89)#89 + 901 x(90)#90 + 324 x(91)#91
      + 21 x(92)#92 + 403 x(93)#93 + 334 x(94)#94 + 571 x(95)#95 + 325 x(96)#96
      + 915 x(97)#97 + 456 x(98)#98 + 695 x(99)#99 <= 24999
 c2:  67 x(0)#0 + 148 x(1)#1 + 506 x(2)#2 + 220 x(3)#3 + 512 x(4)#4
      + 334 x(5)#5 + 446 x(6)#6 + 252 x(7)#7 + 998 x(8)#8 + 655 x(9)#9
      + 67 x(10)#10 + 424 x(11)#11 + 986 x(12)#12 + 326 x(13)#13 + 776 x(14)#14
      + 110 x(15)#15 + 973 x(16)#16 + 97 x(17)#17 + 580 x(18)#18 + 392 x(19)#19
      + 674 x(20)#20 + 159 x(21)#21 + 461 x(22)#22 + 946 x(23)#23
      + 687 x(24)#24 + 493 x(25)#25 + 7 x(26)#26 + 2 x(27)#27 + 636 x(28)#28
      + 201 x(29)#29 + 488 x(30)#30 + 957 x(31)#31 + 485 x(32)#32
      + 768 x(33)#33 + 117 x(34)#34 + 86 x(35)#35 + 552 x(36)#36 + 632 x(37)#37
      + 199 x(38)#38 + 709 x(39)#39 + 525 x(40)#40 + 724 x(41)#41
      + 619 x(42)#42 + 553 x(43)#43 + 872 x(44)#44 + 507 x(45)#45
      + 196 x(46)#46 + 293 x(47)#47 + 311 x(48)#48 + 144 x(49)#49 + 65 x(50)#50
      + 252 x(51)#51 + 276 x(52)#52 + 439 x(53)#53 + 534 x(54)#54
      + 828 x(55)#55 + 290 x(56)#56 + 868 x(57)#57 + 563 x(58)#58
      + 435 x(59)#59 + 703 x(60)#60 + 395 x(61)#61 + 271 x(62)#62
      + 421 x(63)#63 + 566 x(64)#64 + 639 x(65)#65 + 331 x(66)#66
      + 824 x(67)#67 + 153 x(68)#68 + 99 x(69)#69 + 325 x(70)#70 + 710 x(71)#71
      + 697 x(72)#72 + 290 x(73)#73 + 139 x(74)#74 + 488 x(75)#75
      + 917 x(76)#76 + 263 x(77)#77 + 444 x(78)#78 + 170 x(79)#79 + 60 x(80)#80
      + 700 x(81)#81 + 676 x(82)#82 + 483 x(83)#83 + 795 x(84)#84
      + 100 x(85)#85 + 96 x(86)#86 + 857 x(87)#87 + 917 x(88)#88 + 183 x(89)#89
      + 876 x(90)#90 + 702 x(91)#91 + 61 x(92)#92 + 664 x(93)#93 + 253 x(94)#94
      + 429 x(95)#95 + 52 x(96)#96 + 783 x(97)#97 + 778 x(98)#98 + 162 x(99)#99
      <= 22947
 c3:  796 x(0)#0 + 104 x(1)#1 + 624 x(2)#2 + 165 x(3)#3 + 793 x(4)#4
      + 320 x(5)#5 + 594 x(6)#6 + 357 x(7)#7 + 962 x(8)#8 + 43 x(9)#9
      + 405 x(10)#10 + 187 x(11)#11 + 75 x(12)#12 + 951 x(13)#13 + 597 x(14)#14
      + 422 x(15)#15 + 399 x(16)#16 + 246 x(17)#17 + 466 x(18)#18
      + 664 x(19)#19 + 40 x(20)#20 + 646 x(21)#21 + 848 x(22)#22 + 227 x(23)#23
      + 550 x(24)#24 + 40 x(25)#25 + 761 x(26)#26 + 70 x(27)#27 + 681 x(28)#28
      + 779 x(29)#29 + 122 x(30)#30 + 884 x(31)#31 + 103 x(32)#32
      + 950 x(33)#33 + 704 x(34)#34 + 659 x(35)#35 + 549 x(36)#36
      + 799 x(37)#37 + 521 x(38)#38 + 183 x(39)#39 + 614 x(40)#40
      + 230 x(41)#41 + 618 x(42)#42 + 306 x(43)#43 + 435 x(44)#44
      + 329 x(45)#45 + 972 x(46)#46 + 837 x(47)#47 + 96 x(48)#48 + 150 x(49)#49
      + 77 x(50)#50 + 91 x(51)#51 + 123 x(52)#52 + 554 x(53)#53 + 112 x(54)#54
      + 330 x(55)#55 + 851 x(56)#56 + 492 x(57)#57 + 4 x(58)#58 + 640 x(59)#59
      + 572 x(60)#60 + 984 x(61)#61 + 293 x(62)#62 + 670 x(63)#63
      + 700 x(64)#64 + 109 x(65)#65 + 356 x(66)#66 + 519 x(67)#67
      + 621 x(68)#68 + 494 x(69)#69 + 183 x(70)#70 + 512 x(71)#71
      + 625 x(72)#72 + 377 x(73)#73 + 961 x(74)#74 + 693 x(75)#75
      + 142 x(76)#76 + 889 x(77)#77 + 976 x(78)#78 + 784 x(79)#79
      + 199 x(80)#80 + 483 x(81)#81 + 777 x(82)#82 + 952 x(83)#83
      + 318 x(84)#84 + 682 x(85)#85 + 795 x(86)#86 + 618 x(87)#87
      + 714 x(88)#88 + 619 x(89)#89 + 69 x(90)#90 + 178 x(91)#91 + 373 x(92)#92
      + 81 x(93)#93 + 481 x(94)#94 + 256 x(95)#95 + 586 x(96)#96 + 222 x(97)#97
      + 485 x(98)#98 + 51 x(99)#99 <= 23773
 c4:  121 x(0)#0 + 494 x(1)#1 + 110 x(2)#2 + 551 x(3)#3 + 979 x(4)#4
      + 435 x(5)#5 + 731 x(6)#6 + 494 x(7)#7 + 652 x(8)#8 + 399 x(9)#9
      + 818 x(10)#10 + 215 x(11)#11 + 858 x(12)#12 + 318 x(13)#13 + 61 x(14)#14
      + 40 x(15)#15 + 466 x(16)#16 + 127 x(17)#17 + 58 x(18)#18 + 597 x(19)#19
      + 197 x(20)#20 + 494 x(21)#21 + 693 x(22)#22 + 934 x(23)#23
      + 349 x(24)#24 + 459 x(25)#25 + 606 x(26)#26 + 274 x(27)#27
      + 298 x(28)#28 + 96 x(29)#29 + 107 x(30)#30 + 70 x(31)#31 + 154 x(32)#32
      + 902 x(33)#33 + 555 x(34)#34 + 99 x(35)#35 + 36 x(36)#36 + 524 x(37)#37
      + 104 x(38)#38 + 827 x(39)#39 + 339 x(40)#40 + 716 x(41)#41
      + 897 x(42)#42 + 906 x(43)#43 + 763 x(44)#44 + 430 x(45)#45
      + 770 x(46)#46 + 660 x(47)#47 + 93 x(48)#48 + 1000 x(49)#49
      + 325 x(50)#50 + 361 x(51)#51 + 427 x(52)#52 + 284 x(53)#53
      + 492 x(54)#54 + 667 x(55)#55 + 754 x(56)#56 + 136 x(57)#57
      + 622 x(58)#58 + 412 x(59)#59 + 210 x(60)#60 + 172 x(61)#61
      + 189 x(62)#62 + 832 x(63)#63 + 207 x(64)#64 + 838 x(65)#65
      + 345 x(66)#66 + 550 x(67)#67 + 229 x(68)#68 + 165 x(69)#69
      + 599 x(70)#70 + 557 x(71)#71 + 805 x(72)#72 + 175 x(73)#73
      + 951 x(74)#74 + 992 x(75)#75 + 209 x(76)#76 + 227 x(77)#77
      + 624 x(78)#78 + 786 x(79)#79 + 953 x(80)#80 + 734 x(81)#81
      + 747 x(82)#82 + 600 x(83)#83 + 372 x(84)#84 + 862 x(85)#85
      + 426 x(86)#86 + 345 x(87)#87 + 534 x(88)#88 + 376 x(89)#89
      + 743 x(90)#90 + 254 x(91)#91 + 772 x(92)#92 + 825 x(93)#93
      + 740 x(94)#94 + 800 x(95)#95 + 224 x(96)#96 + 511 x(97)#97
      + 262 x(98)#98 + 118 x(99)#99 <= 24108
 c5:  524 x(0)#0 + 814 x(1)#1 + 921 x(2)#2 + 756 x(3)#3 + 337 x(4)#4
      + 737 x(5)#5 + 906 x(6)#6 + 971 x(7)#7 + 797 x(8)#8 + 54 x(9)#9
      + 294 x(10)#10 + 907 x(11)#11 + 717 x(12)#12 + 776 x(13)#13
      + 277 x(14)#14 + 592 x(15)#15 + 536 x(16)#16 + 35 x(17)#17 + 870 x(18)#18
      + 375 x(19)#19 + 552 x(20)#20 + 226 x(21)#21 + 146 x(22)#22
      + 439 x(23)#23 + 735 x(24)#24 + 368 x(25)#25 + 720 x(26)#26
      + 720 x(27)#27 + 373 x(28)#28 + 912 x(29)#29 + 123 x(30)#30
      + 453 x(31)#31 + 499 x(32)#32 + 93 x(33)#33 + 886 x(34)#34 + 472 x(35)#35
      + 679 x(36)#36 + 73 x(37)#37 + 490 x(38)#38 + 698 x(39)#39 + 197 x(40)#40
      + 654 x(41)#41 + 725 x(42)#42 + 951 x(43)#43 + 514 x(44)#44
      + 358 x(45)#45 + 827 x(46)#46 + 515 x(47)#47 + 264 x(48)#48
      + 475 x(49)#49 + 617 x(50)#50 + 447 x(51)#51 + 664 x(52)#52
      + 286 x(53)#53 + 342 x(54)#54 + 505 x(55)#55 + 923 x(56)#56
      + 976 x(57)#57 + 968 x(58)#58 + 775 x(59)#59 + 742 x(60)#60
      + 514 x(61)#61 + 704 x(62)#62 + 953 x(63)#63 + 265 x(64)#64
      + 260 x(65)#65 + 421 x(66)#66 + 497 x(67)#67 + 495 x(68)#68
      + 944 x(69)#69 + 697 x(70)#70 + 316 x(71)#71 + 387 x(72)#72
      + 172 x(73)#73 + 349 x(74)#74 + 894 x(75)#75 + 158 x(76)#76
      + 801 x(77)#77 + 341 x(78)#78 + 599 x(79)#79 + 739 x(80)#80
      + 791 x(81)#81 + 35 x(82)#82 + 223 x(83)#83 + 878 x(84)#84 + 709 x(85)#85
      + 269 x(86)#86 + 578 x(87)#87 + 232 x(88)#88 + 298 x(89)#89
      + 902 x(90)#90 + 124 x(91)#91 + 644 x(92)#92 + 644 x(93)#93
      + 884 x(94)#94 + 683 x(95)#95 + 543 x(96)#96 + 275 x(97)#97
      + 871 x(98)#98 + 831 x(99)#99 <= 27749
 c6:  905 x(0)#0 + 125 x(1)#1 + 709 x(2)#2 + 171 x(3)#3 + 182 x(4)#4
      + 456 x(5)#5 + 173 x(6)#6 + 616 x(7)#7 + 155 x(8)#8 + 137 x(9)#9
      + 794 x(10)#10 + 437 x(11)#11 + 680 x(12)#12 + 759 x(13)#13
      + 139 x(14)#14 + 273 x(15)#15 + 427 x(16)#16 + 894 x(17)#17
      + 429 x(18)#18 + 844 x(19)#19 + 398 x(20)#20 + 845 x(21)#21
      + 119 x(22)#22 + 673 x(23)#23 + 774 x(24)#24 + 647 x(25)#25
      + 201 x(26)#26 + 300 x(27)#27 + 819 x(28)#28 + 729 x(29)#29
      + 460 x(30)#30 + 450 x(31)#31 + 718 x(32)#32 + 944 x(33)#33 + 47 x(34)#34
      + 125 x(35)#35 + 470 x(36)#36 + 984 x(37)#37 + 854 x(38)#38
      + 509 x(39)#39 + 232 x(40)#40 + 484 x(41)#41 + 123 x(42)#42
      + 749 x(43)#43 + 881 x(44)#44 + 322 x(45)#45 + 826 x(46)#46
      + 747 x(47)#47 + 693 x(48)#48 + 330 x(49)#49 + 54 x(50)#50 + 149 x(51)#51
      + 462 x(52)#52 + 65 x(53)#53 + 102 x(54)#54 + 532 x(55)#55 + 124 x(56)#56
      + 882 x(57)#57 + 756 x(58)#58 + 50 x(59)#59 + 727 x(60)#60 + 151 x(61)#61
      + 523 x(62)#62 + 74 x(63)#63 + 964 x(64)#64 + 978 x(65)#65 + 958 x(66)#66
      + 172 x(67)#67 + 211 x(68)#68 + 406 x(69)#69 + 160 x(70)#70
      + 173 x(71)#71 + 269 x(72)#72 + 517 x(73)#73 + 296 x(74)#74 + 80 x(75)#75
      + 742 x(76)#76 + 824 x(77)#77 + 176 x(78)#78 + 934 x(79)#79
      + 590 x(80)#80 + 752 x(81)#81 + 409 x(82)#82 + 167 x(83)#83
      + 535 x(84)#84 + 807 x(85)#85 + 209 x(86)#86 + 326 x(87)#87
      + 766 x(88)#88 + 797 x(89)#89 + 384 x(90)#90 + 542 x(91)#91
      + 898 x(92)#92 + 468 x(93)#93 + 45 x(94)#94 + 631 x(95)#95 + 597 x(96)#96
      + 658 x(97)#97 + 187 x(98)#98 + 430 x(99)#99 <= 24234
 c7:  133 x(0)#0 + 306 x(1)#1 + 275 x(2)#2 + 719 x(3)#3 + 906 x(4)#4
      + 153 x(5)#5 + 776 x(6)#6 + 332 x(7)#7 + 197 x(8)#8 + 9 x(9)#9
      + 309 x(10)#10 + 403 x(11)#11 + 877 x(12)#12 + 984 x(13)#13
      + 254 x(14)#14 + 392 x(15)#15 + 33 x(16)#16 + 622 x(17)#17 + 145 x(18)#18
      + 351 x(19)#19 + 300 x(20)#20 + 321 x(21)#21 + 715 x(22)#22
      + 976 x(23)#23 + 572 x(24)#24 + 776 x(25)#25 + 122 x(26)#26
      + 561 x(27)#27 + 24 x(28)#28 + 665 x(29)#29 + 742 x(30)#30 + 844 x(31)#31
      + 877 x(32)#32 + 131 x(33)#33 + 494 x(34)#34 + 933 x(35)#35
      + 399 x(36)#36 + 635 x(37)#37 + 828 x(38)#38 + 770 x(39)#39 + 24 x(40)#40
      + 95 x(41)#41 + 64 x(42)#42 + 928 x(43)#43 + 306 x(44)#44 + 563 x(45)#45
      + 77 x(46)#46 + 985 x(47)#47 + 980 x(48)#48 + 695 x(49)#49 + 797 x(50)#50
      + 184 x(51)#51 + 247 x(52)#52 + 237 x(53)#53 + 342 x(54)#54
      + 912 x(55)#55 + 293 x(56)#56 + 572 x(57)#57 + 497 x(58)#58
      + 975 x(59)#59 + 342 x(60)#60 + 230 x(61)#61 + 894 x(62)#62
      + 718 x(63)#63 + 82 x(64)#64 + 569 x(65)#65 + 994 x(66)#66 + 110 x(67)#67
      + 765 x(68)#68 + 216 x(69)#69 + 907 x(70)#70 + 482 x(71)#71
      + 534 x(72)#72 + 391 x(73)#73 + 858 x(74)#74 + 494 x(75)#75
      + 854 x(76)#76 + 881 x(77)#77 + 933 x(78)#78 + 394 x(79)#79
      + 936 x(80)#80 + 609 x(81)#81 + 167 x(82)#82 + 839 x(83)#83
      + 813 x(84)#84 + 42 x(85)#85 + 120 x(86)#86 + 270 x(87)#87 + 677 x(88)#88
      + 55 x(89)#89 + 331 x(90)#90 + 499 x(91)#91 + 333 x(92)#92 + 602 x(93)#93
      + 181 x(94)#94 + 949 x(95)#95 + 995 x(96)#96 + 637 x(97)#97
      + 366 x(98)#98 + 289 x(99)#99 <= 25496
 c8:  171 x(0)#0 + 706 x(1)#1 + 39 x(2)#2 + 452 x(3)#3 + 647 x(4)#4
      + 683 x(5)#5 + 754 x(6)#6 + 597 x(7)#7 + 647 x(8)#8 + 113 x(9)#9
      + 71 x(10)#10 + 732 x(11)#11 + 534 x(12)#12 + 885 x(13)#13 + 133 x(14)#14
      + 77 x(15)#15 + 896 x(16)#16 + 87 x(17)#17 + 706 x(18)#18 + 794 x(19)#19
      + 181 x(20)#20 + 290 x(21)#21 + 360 x(22)#22 + 731 x(23)#23
      + 239 x(24)#24 + 580 x(25)#25 + 632 x(26)#26 + 23 x(27)#27 + 403 x(28)#28
      + 591 x(29)#29 + 780 x(30)#30 + 184 x(31)#31 + 777 x(32)#32
      + 697 x(33)#33 + 206 x(34)#34 + 719 x(35)#35 + 355 x(36)#36
      + 619 x(37)#37 + 233 x(38)#38 + 709 x(39)#39 + 39 x(40)#40 + 683 x(41)#41
      + 307 x(42)#42 + 397 x(43)#43 + 13 x(44)#44 + 210 x(45)#45 + 455 x(46)#46
      + 866 x(47)#47 + 383 x(48)#48 + 741 x(49)#49 + 948 x(50)#50
      + 587 x(51)#51 + 564 x(52)#52 + 812 x(53)#53 + 968 x(54)#54
      + 713 x(55)#55 + 755 x(56)#56 + 284 x(57)#57 + 778 x(58)#58
      + 325 x(59)#59 + 927 x(60)#60 + 317 x(61)#61 + 354 x(62)#62
      + 785 x(63)#63 + 127 x(64)#64 + 99 x(65)#65 + 193 x(66)#66 + 221 x(67)#67
      + 418 x(68)#68 + 549 x(69)#69 + 351 x(70)#70 + 974 x(71)#71
      + 765 x(72)#72 + 104 x(73)#73 + 416 x(74)#74 + 686 x(75)#75
      + 381 x(76)#76 + 440 x(77)#77 + 542 x(78)#78 + 686 x(79)#79
      + 547 x(80)#80 + 155 x(81)#81 + 30 x(82)#82 + 883 x(83)#83 + 658 x(84)#84
      + 254 x(85)#85 + 954 x(86)#86 + 531 x(87)#87 + 265 x(88)#88 + 83 x(89)#89
      + 177 x(90)#90 + 295 x(91)#91 + 32 x(92)#92 + 337 x(93)#93 + 16 x(94)#94
      + 526 x(95)#95 + 525 x(96)#96 + 539 x(97)#97 + 743 x(98)#98
      + 949 x(99)#99 <= 23848
 c9:  741 x(0)#0 + 692 x(1)#1 + 348 x(2)#2 + 584 x(3)#3 + 857 x(4)#4
      + 135 x(5)#5 + 975 x(6)#6 + 719 x(7)#7 + 254 x(8)#8 + 64 x(9)#9
      + 682 x(10)#10 + 456 x(11)#11 + 650 x(12)#12 + 497 x(13)#13
      + 559 x(14)#14 + 737 x(15)#15 + 367 x(16)#16 + 951 x(17)#17
      + 463 x(18)#18 + 947 x(19)#19 + 73 x(20)#20 + 897 x(21)#21 + 886 x(22)#22
      + 268 x(23)#23 + 951 x(24)#24 + 643 x(25)#25 + 648 x(26)#26
      + 349 x(27)#27 + 660 x(28)#28 + 30 x(29)#29 + 169 x(30)#30 + 22 x(31)#31
      + 994 x(32)#32 + 501 x(33)#33 + 807 x(34)#34 + 403 x(35)#35
      + 195 x(36)#36 + 88 x(37)#37 + 288 x(38)#38 + 743 x(39)#39 + 552 x(40)#40
      + 505 x(41)#41 + 275 x(42)#42 + 842 x(43)#43 + 110 x(44)#44
      + 792 x(45)#45 + 480 x(46)#46 + 564 x(47)#47 + 899 x(48)#48
      + 175 x(49)#49 + 287 x(50)#50 + 695 x(51)#51 + 475 x(52)#52
      + 197 x(53)#53 + 225 x(54)#54 + 102 x(55)#55 + 291 x(56)#56
      + 858 x(57)#57 + 704 x(58)#58 + 639 x(59)#59 + 978 x(60)#60
      + 535 x(61)#61 + 975 x(62)#62 + 154 x(63)#63 + 923 x(64)#64
      + 531 x(65)#65 + 961 x(66)#66 + 806 x(67)#67 + 188 x(68)#68
      + 828 x(69)#69 + 155 x(70)#70 + 600 x(71)#71 + 267 x(72)#72
      + 124 x(73)#73 + 368 x(74)#74 + 483 x(75)#75 + 333 x(76)#76
      + 776 x(77)#77 + 697 x(78)#78 + 142 x(79)#79 + 303 x(80)#80 + 63 x(81)#81
      + 97 x(82)#82 + 24 x(83)#83 + 920 x(84)#84 + 471 x(85)#85 + 9 x(86)#86
      + 620 x(87)#87 + 964 x(88)#88 + 775 x(89)#89 + 56 x(90)#90 + 524 x(91)#91
      + 545 x(92)#92 + 867 x(93)#93 + 232 x(94)#94 + 183 x(95)#95
      + 879 x(96)#96 + 35 x(97)#97 + 689 x(98)#98 + 379 x(99)#99 <= 25210
 c10: 859 x(0)#0 + 3 x(1)#1 + 175 x(2)#2 + 953 x(3)#3 + 232 x(4)#4 + 376 x(5)#5
      + 658 x(6)#6 + 995 x(7)#7 + 881 x(8)#8 + 272 x(9)#9 + 609 x(10)#10
      + 837 x(11)#11 + 697 x(12)#12 + 686 x(13)#13 + 214 x(14)#14
      + 854 x(15)#15 + 79 x(16)#16 + 760 x(17)#17 + 87 x(18)#18 + 630 x(19)#19
      + 418 x(20)#20 + 121 x(21)#21 + 458 x(22)#22 + 109 x(23)#23
      + 952 x(24)#24 + 92 x(25)#25 + 741 x(26)#26 + 7 x(27)#27 + 751 x(28)#28
      + 903 x(29)#29 + 217 x(30)#30 + 449 x(31)#31 + 992 x(32)#32 + 44 x(33)#33
      + 677 x(34)#34 + 362 x(35)#35 + 46 x(36)#36 + 726 x(37)#37 + 185 x(38)#38
      + 969 x(39)#39 + 306 x(40)#40 + 120 x(41)#41 + 185 x(42)#42
      + 611 x(43)#43 + 275 x(44)#44 + 53 x(45)#45 + 69 x(46)#46 + 385 x(47)#47
      + 544 x(48)#48 + 655 x(49)#49 + 35 x(50)#50 + 139 x(51)#51 + 710 x(52)#52
      + 720 x(53)#53 + 772 x(54)#54 + 472 x(55)#55 + 176 x(56)#56
      + 594 x(57)#57 + 30 x(58)#58 + 416 x(59)#59 + 265 x(60)#60 + 959 x(61)#61
      + 951 x(62)#62 + 783 x(63)#63 + 291 x(64)#64 + 167 x(65)#65 + 20 x(66)#66
      + 210 x(67)#67 + 453 x(68)#68 + 733 x(69)#69 + 405 x(70)#70
      + 975 x(71)#71 + 310 x(72)#72 + 481 x(73)#73 + 585 x(74)#74
      + 550 x(75)#75 + 764 x(76)#76 + 35 x(77)#77 + 976 x(78)#78 + 25 x(79)#79
      + 363 x(80)#80 + 996 x(81)#81 + 692 x(82)#82 + 445 x(83)#83
      + 198 x(84)#84 + 405 x(85)#85 + 279 x(86)#86 + 670 x(87)#87
      + 183 x(88)#88 + 772 x(89)#89 + 195 x(90)#90 + 28 x(91)#91 + 687 x(92)#92
      + 426 x(93)#93 + 411 x(94)#94 + 431 x(95)#95 + 148 x(96)#96
      + 141 x(97)#97 + 525 x(98)#98 + 11 x(99)#99 <= 22644
Bounds
 0 <= x(0)#0 <= 1
 0 <= x(1)#1 <= 1
 0 <= x(2)#2 <= 1
 0 <= x(3)#3 <= 1
 0 <= x(4)#4 <= 1
 0 <= x(5)#5 <= 1
 0 <= x(6)#6 <= 1
 0 <= x(7)#7 <= 1
 0 <= x(8)#8 <= 1
 0 <= x(9)#9 <= 1
 0 <= x(10)#10 <= 1
 0 <= x(11)#11 <= 1
 0 <= x(12)#12 <= 1
 0 <= x(13)#13 <= 1
 0 <= x(14)#14 <= 1
 0 <= x(15)#15 <= 1
 0 <= x(16)#16 <= 1
 0 <= x(17)#17 <= 1
 0 <= x(18)#18 <= 1
 0 <= x(19)#19 <= 1
 0 <= x(20)#20 <= 1
 0 <= x(21)#21 <= 1
 0 <= x(22)#22 <= 1
 0 <= x(23)#23 <= 1
 0 <= x(24)#24 <= 1
 0 <= x(25)#25 <= 1
 0 <= x(26)#26 <= 1
 0 <= x(27)#27 <= 1
 0 <= x(28)#28 <= 1
 0 <= x(29)#29 <= 1
 0 <= x(30)#30 <= 1
 0 <= x(31)#31 <= 1
 0 <= x(32)#32 <= 1
 0 <= x(33)#33 <= 1
 0 <= x(34)#34 <= 1
 0 <= x(35)#35 <= 1
 0 <= x(36)#36 <= 1
 0 <= x(37)#37 <= 1
 0 <= x(38)#38 <= 1
 0 <= x(39)#39 <= 1
 0 <= x(40)#40 <= 1
 0 <= x(41)#41 <= 1
 0 <= x(42)#42 <= 1
 0 <= x(43)#43 <= 1
 0 <= x(44)#44 <= 1
 0 <= x(45)#45 <= 1
 0 <= x(46)#46 <= 1
 0 <= x(47)#47 <= 1
 0 <= x(48)#48 <= 1
 0 <= x(49)#49 <= 1
 0 <= x(50)#50 <= 1
 0 <= x(51)#51 <= 1
 0 <= x(52)#52 <= 1
 0 <= x(53)#53 <= 1
 0 <= x(54)#54 <= 1
 0 <= x(55)#55 <= 1
 0 <= x(56)#56 <= 1
 0 <= x(57)#57 <= 1
 0 <= x(58)#58 <= 1
 0 <= x(59)#59 <= 1
 0 <= x(60)#60 <= 1
 0 <= x(61)#61 <= 1
 0 <= x(62)#62 <= 1
 0 <= x(63)#63 <= 1
 0 <= x(64)#64 <= 1
 0 <= x(65)#65 <= 1
 0 <= x(66)#66 <= 1
 0 <= x(67)#67 <= 1
 0 <= x(68)#68 <= 1
 0 <= x(69)#69 <= 1
 0 <= x(70)#70 <= 1
 0 <= x(71)#71 <= 1
 0 <= x(72)#72 <= 1
 0 <= x(73)#73 <= 1
 0 <= x(74)#74 <= 1
 0 <= x(75)#75 <= 1
 0 <= x(76)#76 <= 1
 0 <= x(77)#77 <= 1
 0 <= x(78)#78 <= 1
 0 <= x(79)#79 <= 1
 0 <= x(80)#80 <= 1
 0 <= x(81)#81 <= 1
 0 <= x(82)#82 <= 1
 0 <= x(83)#83 <= 1
 0 <= x(84)#84 <= 1
 0 <= x(85)#85 <= 1
 0 <= x(86)#86 <= 1
 0 <= x(87)#87 <= 1
 0 <= x(88)#88 <= 1
 0 <= x(89)#89 <= 1
 0 <= x(90)#90 <= 1
 0 <= x(91)#91 <= 1
 0 <= x(92)#92 <= 1
 0 <= x(93)#93 <= 1
 0 <= x(94)#94 <= 1
 0 <= x(95)#95 <= 1
 0 <= x(96)#96 <= 1
 0 <= x(97)#97 <= 1
 0 <= x(98)#98 <= 1
 0 <= x(99)#99 <= 1
Generals
 x(0)#0  x(1)#1  x(2)#2  x(3)#3  x(4)#4  x(5)#5  x(6)#6  x(7)#7  x(8)#8 
 x(9)#9  x(10)#10  x(11)#11  x(12)#12  x(13)#13  x(14)#14  x(15)#15  x(16)#16 
 x(17)#17  x(18)#18  x(19)#19  x(20)#20  x(21)#21  x(22)#22  x(23)#23 
 x(24)#24  x(25)#25  x(26)#26  x(27)#27  x(28)#28  x(29)#29  x(30)#30 
 x(31)#31  x(32)#32  x(33)#33  x(34)#34  x(35)#35  x(36)#36  x(37)#37 
 x(38)#38  x(39)#39  x(40)#40  x(41)#41  x(42)#42  x(43)#43  x(44)#44 
 x(45)#45  x(46)#46  x(47)#47  x(48)#48  x(49)#49  x(50)#50  x(51)#51 
 x(52)#52  x(53)#53  x(54)#54  x(55)#55  x(56)#56  x(57)#57  x(58)#58 
 x(59)#59  x(60)#60  x(61)#61  x(62)#62  x(63)#63  x(64)#64  x(65)#65 
 x(66)#66  x(67)#67  x(68)#68  x(69)#69  x(70)#70  x(71)#71  x(72)#72 
 x(73)#73  x(74)#74  x(75)#75  x(76)#76  x(77)#77  x(78)#78  x(79)#79 
 x(80)#80  x(81)#81  x(82)#82  x(83)#83  x(84)#84  x(85)#85  x(86)#86 
 x(87)#87  x(88)#88  x(89)#89  x(90)#90  x(91)#91  x(92)#92  x(93)#93 
 x(94)#94  x(95)#95  x(96)#96  x(97)#97  x(98)#98  x(99)#99 
End
